smt/acc-fold/bench/smt/append_sll_size_slk-7.smt2
(set-logic QF_S)

(declare-sort node 0)
(declare-fun val () (Field node int))
(declare-fun next () (Field node node))

(define-fun ll ((?in node) (?n int))
Space (tospace
(or
(= ?in nil)
(= ?n 0)
(exists ((?flted_7_20 int)(?v_21 int)(?q_22 node)) (tobool (ssep (pto ?in (sref (ref val ?v_21) (ref next ?q_22) )) (ll ?q_22 ?flted_7_20))))
)))










(declare-fun v_1021 () int)
(declare-fun n1 () int)
(declare-fun yprm () node)
(declare-fun y () node)
(declare-fun xprm () node)
(declare-fun x () node)
(declare-fun q_1022 () node)
(declare-fun v_bool_15_988prm () boolean)
(declare-fun n2 () int)
(declare-fun flted_7_1020 () int)
(declare-fun n1_1033 () int)
(declare-fun n2_1034 () int)


(assert 
(exists ((flted_12_1039 int)) (tobool (ssep (pto xprm (sref (ref val v_1021) (ref next q_1022) )) (ll q_1022 flted_12_1039))))

)

(assert (not 
(exists ((flted_12_45 int)(flted_12_1043 int)) (tobool (ll x flted_12_45)))

))

(check-sat)
